computational_data/solutions/Grid5x6.sol
Optimal - objective value 14.00000000
      0 r_0                         1                       1
      2 r_2                         1                       1
      9 r_9                         1                       1
     11 r_11                        1                       1
     13 r_13                        1                       1
     22 r_22                        1                       1
     25 r_25                        1                       1
     27 r_27                        1                       1
     34 b_4                         1                       1
     37 b_7                         1                       1
     46 b_16                        1                       1
     48 b_18                        1                       1
     50 b_20                        1                       1
     59 b_29                        1                       1
