computational_data/logs/Grid5x6.log
Welcome to the CBC MILP Solver 
Version: 2.10.12 
Build Date: Aug 20 2024 

command line - /opt/homebrew/bin/cbc computational_data/lp/Grid5x6.lp seconds 10.0 solve solu computational_data/solutions/Grid5x6.sol (default strategy 1)
seconds was changed from 1e+100 to 10
Continuous objective value is 11.7453 - 0.00 seconds
Cgl0004I processed model has 190 rows, 60 columns (60 integer (60 of which binary)) and 632 elements
Cutoff increment increased from 1e-05 to 0.9999
Cbc0038I Initial state - 60 integers unsatisfied sum - 11.7453
Cbc0038I Pass   1: suminf.   11.74527 (60) obj. 11.7453 iterations 0
Cbc0038I Pass   2: suminf.   11.42857 (37) obj. 14.4286 iterations 67
Cbc0038I Pass   3: suminf.    3.66667 (18) obj. 16.2222 iterations 51
Cbc0038I Pass   4: suminf.    3.25000 (9) obj. 16.75 iterations 9
Cbc0038I Pass   5: suminf.    0.00000 (0) obj. 17 iterations 15
Cbc0038I Solution found of 17
Cbc0038I Before mini branch and bound, 0 integers at bound fixed and 0 continuous
Cbc0038I Full problem 190 rows 60 columns, reduced to 190 rows 60 columns - 5 fixed gives 74, 32 - ok now
Cbc0038I Full problem 190 rows 60 columns, reduced to 57 rows 26 columns
Cbc0038I Mini branch and bound did not improve solution (0.01 seconds)
Cbc0038I Round again with cutoff of 15.5746
Cbc0038I Pass   6: suminf.   11.74527 (60) obj. 11.7453 iterations 0
Cbc0038I Pass   7: suminf.   11.07143 (36) obj. 13.9286 iterations 56
Cbc0038I Pass   8: suminf.    6.66667 (18) obj. 14.6667 iterations 39
Cbc0038I Pass   9: suminf.    5.66667 (16) obj. 14.8333 iterations 13
Cbc0038I Pass  10: suminf.    2.70153 (9) obj. 15.5746 iterations 21
Cbc0038I Pass  11: suminf.    1.27615 (3) obj. 15.5746 iterations 34
Cbc0038I Pass  12: suminf.    1.27615 (3) obj. 15.5746 iterations 2
Cbc0038I Pass  13: suminf.    1.42538 (4) obj. 15.5746 iterations 30
Cbc0038I Pass  14: suminf.    1.27615 (3) obj. 15.5746 iterations 17
Cbc0038I Pass  15: suminf.    4.72385 (15) obj. 15.5746 iterations 65
Cbc0038I Pass  16: suminf.    2.12692 (5) obj. 15.5746 iterations 16
Cbc0038I Pass  17: suminf.    1.27615 (3) obj. 15.5746 iterations 32
Cbc0038I Solution found of 15
Cbc0038I Before mini branch and bound, 0 integers at bound fixed and 0 continuous
Cbc0038I Full problem 190 rows 60 columns, reduced to 190 rows 60 columns - 10 fixed gives 54, 20 - ok now
Cbc0038I Full problem 190 rows 60 columns, reduced to 54 rows 20 columns
Cbc0038I Mini branch and bound did not improve solution (0.01 seconds)
Cbc0038I Round again with cutoff of 13.5491
Cbc0038I Pass  18: suminf.   11.74527 (60) obj. 11.7453 iterations 0
Cbc0038I Pass  19: suminf.   12.00000 (38) obj. 13.5491 iterations 57
Cbc0038I Pass  20: suminf.    6.51561 (26) obj. 13.5491 iterations 50
Cbc0038I Pass  21: suminf.    6.45087 (22) obj. 13.5491 iterations 21
Cbc0038I Pass  22: suminf.    9.81696 (29) obj. 13.5491 iterations 44
Cbc0038I Pass  23: suminf.    8.09524 (28) obj. 13.3333 iterations 33
Cbc0038I Pass  24: suminf.    6.95598 (31) obj. 13.5491 iterations 33
Cbc0038I Pass  25: suminf.    9.29702 (36) obj. 13.5491 iterations 27
Cbc0038I Pass  26: suminf.    7.31614 (31) obj. 13.5491 iterations 28
Cbc0038I Pass  27: suminf.    6.56840 (29) obj. 13.5491 iterations 20
Cbc0038I Pass  28: suminf.    9.95953 (25) obj. 13.5491 iterations 50
Cbc0038I Pass  29: suminf.    7.44737 (33) obj. 13.5491 iterations 30
Cbc0038I Pass  30: suminf.    6.64354 (28) obj. 13.5491 iterations 20
Cbc0038I Pass  31: suminf.    6.58802 (29) obj. 13.5491 iterations 5
Cbc0038I Pass  32: suminf.    8.31848 (41) obj. 13.5491 iterations 34
Cbc0038I Pass  33: suminf.    6.49188 (28) obj. 13.5491 iterations 26
Cbc0038I Pass  34: suminf.    6.45073 (28) obj. 13.5491 iterations 9
Cbc0038I Pass  35: suminf.    7.75888 (26) obj. 13.5491 iterations 34
Cbc0038I Pass  36: suminf.    6.19191 (23) obj. 13.5491 iterations 25
Cbc0038I Pass  37: suminf.    6.19191 (23) obj. 13.5491 iterations 3
Cbc0038I Pass  38: suminf.    6.36544 (21) obj. 13.5491 iterations 44
Cbc0038I Pass  39: suminf.    6.30636 (22) obj. 13.5491 iterations 15
Cbc0038I Pass  40: suminf.    5.95260 (23) obj. 13.5491 iterations 40
Cbc0038I Pass  41: suminf.    5.39884 (20) obj. 13.5491 iterations 22
Cbc0038I Pass  42: suminf.    5.23507 (21) obj. 13.5491 iterations 15
Cbc0038I Pass  43: suminf.    6.54014 (29) obj. 13.5491 iterations 44
Cbc0038I Pass  44: suminf.    4.41811 (11) obj. 13.5491 iterations 39
Cbc0038I Pass  45: suminf.    4.41811 (11) obj. 13.5491 iterations 15
Cbc0038I Pass  46: suminf.    4.45087 (11) obj. 13.5491 iterations 30
Cbc0038I Pass  47: suminf.    3.80347 (19) obj. 13.5491 iterations 32
Cbc0038I No solution found this major pass
Cbc0038I Before mini branch and bound, 0 integers at bound fixed and 0 continuous
Cbc0038I Full problem 190 rows 60 columns, reduced to 190 rows 60 columns - 10 fixed gives 54, 20 - ok now
Cbc0038I Mini branch and bound did not improve solution (0.03 seconds)
Cbc0038I After 0.03 seconds - Feasibility pump exiting with objective of 15 - took 0.03 seconds
Cbc0012I Integer solution of 15 found by feasibility pump after 0 iterations and 0 nodes (0.03 seconds)
Cbc0031I 13 added rows had average density of 60
Cbc0013I At root node, 13 cuts changed objective from 11.745267 to 12.15085 in 100 passes
Cbc0014I Cut generator 0 (Probing) - 0 row cuts average 0.0 elements, 0 column cuts (0 active)  in 0.013 seconds - new frequency is -100
Cbc0014I Cut generator 1 (Gomory) - 950 row cuts average 60.0 elements, 0 column cuts (0 active)  in 0.056 seconds - new frequency is -100
Cbc0014I Cut generator 2 (Knapsack) - 0 row cuts average 0.0 elements, 0 column cuts (0 active)  in 0.005 seconds - new frequency is -100
Cbc0014I Cut generator 3 (Clique) - 0 row cuts average 0.0 elements, 0 column cuts (0 active)  in 0.006 seconds - new frequency is -100
Cbc0014I Cut generator 4 (MixedIntegerRounding2) - 0 row cuts average 0.0 elements, 0 column cuts (0 active)  in 0.031 seconds - new frequency is -100
Cbc0014I Cut generator 5 (FlowCover) - 0 row cuts average 0.0 elements, 0 column cuts (0 active)  in 0.001 seconds - new frequency is -100
Cbc0010I After 0 nodes, 1 on tree, 15 best solution, best possible 12.15085 (0.30 seconds)
Cbc0012I Integer solution of 14 found by DiveCoefficient after 4346 iterations and 6 nodes (0.36 seconds)
Cbc0001I Search completed - best objective 14, took 5783 iterations and 34 nodes (0.52 seconds)
Cbc0032I Strong branching done 878 times (18230 iterations), fathomed 12 nodes and fixed 8 variables
Cbc0035I Maximum depth 5, 36 variables fixed on reduced cost
Cuts at root node changed objective from 11.7453 to 12.1508
Probing was tried 100 times and created 0 cuts of which 0 were active after adding rounds of cuts (0.013 seconds)
Gomory was tried 100 times and created 950 cuts of which 0 were active after adding rounds of cuts (0.056 seconds)
Knapsack was tried 100 times and created 0 cuts of which 0 were active after adding rounds of cuts (0.005 seconds)
Clique was tried 100 times and created 0 cuts of which 0 were active after adding rounds of cuts (0.006 seconds)
MixedIntegerRounding2 was tried 100 times and created 0 cuts of which 0 were active after adding rounds of cuts (0.031 seconds)
FlowCover was tried 100 times and created 0 cuts of which 0 were active after adding rounds of cuts (0.001 seconds)
TwoMirCuts was tried 1 times and created 0 cuts of which 0 were active after adding rounds of cuts (0.001 seconds)
ZeroHalf was tried 1 times and created 0 cuts of which 0 were active after adding rounds of cuts (0.000 seconds)

Result - Optimal solution found

Objective value:                14.00000000
Enumerated nodes:               34
Total iterations:               5783
Time (CPU seconds):             0.52
Time (Wallclock seconds):       0.54

Total time (CPU seconds):       0.52   (Wallclock seconds):       0.54

